words_hard_train/2405.qaiger
aag 40 12 0 1 28
2
4
8
10
20
22
32
34
38
40
46
50
80
6 2 4
12 9 11
14 6 13
16 8 10
18 15 17
24 20 22
26 18 25
28 21 23
30 27 29
36 32 34
42 39 40
44 36 42
48 44 46
52 49 50
54 30 53
56 41 35
58 56 47
60 38 33
62 58 60
64 63 51
66 55 65
68 33 50
70 23 47
72 5 11
74 70 72
76 68 74
78 76 56
80 66 79
i0 1 x1[4]
i1 2 y2[0]
i2 1 x1[5]
i3 2 y2[1]
i4 1 x1[6]
i5 2 y2[2]
i6 2 y2[5]
i7 2 y2[6]
i8 1 x1[7]
i9 2 y2[4]
i10 2 y2[3]
i11 2 y2[7]
o0 bv[0]
c
simplified
  >
    subtract
      xor
        1
        1
      2 y2
    >> 4
      1 x1
