words_hard_train/2405.qaiger.qdimacs
p cnf 40 85
a 1 10 19 4 0
e 2 3 5 6 7 8 9 11 12 13 14 15 16 17 18 20 21 22 23 24 25 26 27 28 29 30 31 32 33 34 35 36 37 38 39 40 0
-1 -2 3 0
1 -3 0
2 -3 0
4 5 6 0
-4 -6 0
-5 -6 0
-3 6 7 0
3 -7 0
-6 -7 0
-4 -5 8 0
4 -8 0
5 -8 0
7 8 9 0
-7 -9 0
-8 -9 0
-10 -11 12 0
10 -12 0
11 -12 0
-9 12 13 0
9 -13 0
-12 -13 0
10 11 14 0
-10 -14 0
-11 -14 0
13 14 15 0
-13 -15 0
-14 -15 0
-16 -17 18 0
16 -18 0
17 -18 0
19 -20 21 0
-19 -21 0
20 -21 0
-18 -21 22 0
18 -22 0
21 -22 0
-22 -23 24 0
22 -24 0
23 -24 0
24 -25 26 0
-24 -26 0
25 -26 0
-15 26 27 0
15 -27 0
-26 -27 0
20 17 28 0
-20 -28 0
-17 -28 0
-28 23 29 0
28 -29 0
-23 -29 0
-19 16 30 0
19 -30 0
-16 -30 0
-29 -30 31 0
29 -31 0
30 -31 0
31 25 32 0
-31 -32 0
-25 -32 0
27 32 33 0
-27 -33 0
-32 -33 0
16 -25 34 0
-16 -34 0
25 -34 0
11 23 35 0
-11 -35 0
-23 -35 0
2 5 36 0
-2 -36 0
-5 -36 0
-35 -36 37 0
35 -37 0
36 -37 0
-34 -37 38 0
34 -38 0
37 -38 0
-38 -28 39 0
38 -39 0
28 -39 0
-33 39 40 0
33 -40 0
-39 -40 0
40 0
